(set-logic QF_S)
(declare-fun var0 () String)
(assert (RegexIn var0 (RegexConcat (RegexUnion (RegexPlus (Str2Reg "00")) (RegexPlus (Str2Reg "111"))) (RegexConcat (RegexStar (RegexPlus (Str2Reg "2"))) (RegexConcat (RegexUnion (RegexStar (Str2Reg "33")) (RegexStar (Str2Reg "4"))) (RegexConcat (RegexUnion (RegexPlus (Str2Reg "555")) (RegexPlus (Str2Reg "666"))) (RegexConcat (RegexPlus (RegexStar (Str2Reg "77"))) (RegexConcat (RegexPlus (RegexPlus (Str2Reg "888"))) (RegexConcat (RegexPlus (RegexStar (Str2Reg "9"))) (RegexConcat (RegexPlus (RegexUnion (Str2Reg "aaa") (Str2Reg "bb"))) (RegexConcat (RegexStar (RegexStar (Str2Reg "c"))) (RegexConcat (RegexPlus (RegexUnion (Str2Reg "ddd") (Str2Reg "e"))) (RegexConcat (RegexStar (RegexUnion (Str2Reg "fff") (Str2Reg "gg"))) (RegexConcat (RegexStar (RegexUnion (Str2Reg "hh") (Str2Reg "i"))) (RegexConcat (RegexPlus (RegexStar (Str2Reg "jj"))) (RegexConcat (RegexStar (RegexUnion (Str2Reg "kkk") (Str2Reg "lll"))) (RegexConcat (RegexPlus (RegexStar (Str2Reg "m"))) (RegexConcat (RegexPlus (RegexStar (Str2Reg "n"))) (RegexConcat (RegexStar (RegexUnion (Str2Reg "o") (Str2Reg "ppp"))) (RegexConcat (RegexUnion (RegexUnion (Str2Reg "q") (Str2Reg "r")) (RegexUnion (Str2Reg "s") (Str2Reg "ttt"))) (RegexConcat (RegexUnion (RegexUnion (Str2Reg "uuu") (Str2Reg "v")) (RegexUnion (Str2Reg "www") (Str2Reg "xx"))) (RegexConcat (RegexUnion (RegexStar (Str2Reg "yy")) (RegexStar (Str2Reg "zzz"))) (RegexConcat (RegexUnion (RegexUnion (Str2Reg "A") (Str2Reg "BB")) (RegexUnion (Str2Reg "CC") (Str2Reg "DDD"))) (RegexConcat (RegexStar (RegexStar (Str2Reg "EE"))) (RegexConcat (RegexPlus (RegexStar (Str2Reg "FFF"))) (RegexConcat (RegexStar (RegexUnion (Str2Reg "GG") (Str2Reg "HH"))) (RegexConcat (RegexStar (RegexPlus (Str2Reg "I"))) (RegexConcat (RegexUnion (RegexPlus (Str2Reg "J")) (RegexPlus (Str2Reg "K"))) (RegexConcat (RegexPlus (RegexUnion (Str2Reg "L") (Str2Reg "M"))) (RegexConcat (RegexUnion (RegexUnion (Str2Reg "NNN") (Str2Reg "O")) (RegexUnion (Str2Reg "PPP") (Str2Reg "Q"))) (RegexConcat (RegexUnion (RegexPlus (Str2Reg "R")) (RegexPlus (Str2Reg "SS"))) (RegexConcat (RegexUnion (RegexStar (Str2Reg "TT")) (RegexStar (Str2Reg "UU"))) (RegexConcat (RegexStar (RegexPlus (Str2Reg "VVV"))) (RegexConcat (RegexPlus (RegexStar (Str2Reg "WWW"))) (RegexConcat (RegexStar (RegexPlus (Str2Reg "XXX"))) (RegexConcat (RegexStar (RegexPlus (Str2Reg "Y"))) (RegexConcat (RegexStar (RegexStar (Str2Reg "ZZZ"))) (RegexConcat (RegexStar (RegexStar (Str2Reg "!!"))) (RegexConcat (RegexPlus (RegexStar (Str2Reg "\"\"\""))) (RegexConcat (RegexStar (RegexUnion (Str2Reg "##") (Str2Reg "$$$"))) (RegexConcat (RegexUnion (RegexStar (Str2Reg "%")) (RegexStar (Str2Reg "&&&"))) (RegexConcat (RegexUnion (RegexUnion (Str2Reg "'") (Str2Reg "((")) (RegexUnion (Str2Reg ")") (Str2Reg "**"))) (RegexUnion (RegexStar (Str2Reg "+++")) (RegexStar (Str2Reg ",,,")))))))))))))))))))))))))))))))))))))))))))))
(check-sat)